s td 32 29 66
b 1 3 6 9 10 16 19 24 35 39 40 41 44 48 49 50 57 58 64
b 2 3 5 8 13 17 18 20 25 26 43 45 46 47 52 54 55 60 63
b 3 3 5 8 13 17 18 20 26 43 45 46 47 52 54 55 60 63 64
b 4 3 6 9 10 14 16 19 35 39 41 44 48 49 50 57 58 64
b 5 3 6 9 14 16 19 35 39 41 44 48 49 50 57 58 62 64
b 6 2 3 6 9 14 19 35 39 41 44 48 49 50 57 58 62 64
b 7 2 3 6 9 14 19 35 37 41 44 48 49 50 57 58 62 64
b 8 2 3 6 9 14 19 35 36 37 44 48 49 50 57 58 62 64
b 9 2 3 6 9 14 19 35 36 37 48 49 50 57 58 61 62 64
b 10 2 3 6 9 14 19 35 36 37 49 50 53 57 58 61 62 64
b 11 2 3 4 6 9 14 19 35 36 37 49 53 57 58 61 62 64
b 12 1 2 3 4 7 9 12 14 22 30 31 32 36 37 42 53 61 62 66
b 13 2 3 4 6 7 9 14 19 31 35 36 37 49 53 57 61 62 64
b 14 1 2 3 4 7 9 14 19 22 31 35 36 37 42 49 53 57 61 62 64 66
b 15 1 2 3 4 7 9 14 19 22 31 35 36 37 38 42 49 53 57 61 62 66
b 16 1 2 3 4 7 9 14 19 22 30 31 35 36 37 38 42 53 57 61 62 66
b 17 1 2 3 4 7 9 12 14 22 30 31 36 37 38 42 53 57 61 62 66
b 18 1 2 3 4 7 14 18 22 36 37 42 49 53 61 62 64 66
b 19 1 2 3 4 7 11 14 15 18 21 22 23 27 28 29 33 34 36 37 42 51 52 53 56 59 61 62 65 66
b 20 1 2 3 4 7 11 14 18 21 22 23 27 28 29 33 34 36 37 42 51 52 53 56 59 61 62 64 65 66
b 21 2 3 4 7 11 14 18 21 22 23 26 27 28 29 33 34 36 37 42 51 52 53 56 59 61 62 64 65 66
b 22 3 4 7 11 14 18 21 22 23 26 27 28 29 33 34 36 37 42 51 52 53 54 56 59 61 62 64 66
b 23 3 7 14 18 21 22 23 26 27 28 29 33 34 36 37 42 51 52 53 54 56 59 60 61 62 64 66
b 24 3 14 17 18 21 22 23 26 27 28 29 33 34 36 37 42 52 53 54 56 59 60 61 62 64 66
b 25 3 17 18 21 22 23 26 27 29 33 34 36 37 42 47 52 53 54 56 59 60 61 62 64 66
b 26 3 17 18 22 23 26 27 29 33 34 36 37 46 47 52 53 54 56 59 60 61 62 64 66
b 27 3 17 18 23 26 29 33 34 36 37 43 46 47 52 53 54 56 59 60 61 62 64 66
b 28 3 17 18 23 26 33 34 36 43 46 47 52 53 54 56 59 60 61 62 63 64 66
b 29 3 17 18 20 23 26 33 34 43 46 47 52 53 54 59 60 61 62 63 64 66
b 30 3 13 17 18 20 23 26 33 43 46 47 52 53 54 59 60 62 63 64 66
b 31 3 8 13 17 18 20 23 26 43 46 47 52 53 54 59 60 62 63 64
b 32 3 5 8 13 17 18 20 23 26 43 46 47 52 54 60 62 63 64
1 4
2 3
3 32
4 5
5 6
6 7
7 8
8 9
9 10
10 11
11 13
12 17
13 14
14 18
14 15
15 16
16 17
18 20
19 20
20 21
21 22
22 23
23 24
24 25
25 26
26 27
27 28
28 29
29 30
30 31
31 32
